Minimize
	value: tt

Subject to
tt + 1000 s_1_1 > 0.0
tt - t_1_1 - 1001.071643 s_1_1  + 1.071643 s_1_7  > -992.504900
tt + 1000 s_2_1 > 0.0
tt - t_2_1 - 1001.150791 s_2_1  + 1.150791 s_2_7  > -992.288078
tt + 1000 s_1_2 > 0.0
tt - t_1_2 - 1001.071643 s_1_2  + 1.071643 s_1_8  > -991.867400
tt + 1000 s_2_2 > 0.0
tt - t_2_2 - 1001.150791 s_2_2  + 1.150791 s_2_8  > -991.839336
tt + 1000 s_1_3 > 0.0
tt - t_1_3 - 1001.071643 s_1_3  + 1.071643 s_1_8  > -986.196600
tt + 1000 s_2_3 > 0.0
tt - t_2_3 - 1001.150791 s_2_3  + 1.150791 s_2_8  > -987.322828
tt + 1000 s_1_4 > 0.0
tt - t_1_4 - 1001.513385 s_1_4  + 0.441742 s_1_3  + 1.071643 s_1_8  > -993.099200
tt + 1000 s_2_4 > 0.0
tt - t_2_4 - 1001.617117 s_2_4  + 0.466326 s_2_3  + 1.150791 s_2_8  > -993.104711
tt + 1000 s_1_5 > 0.0
tt - t_1_5 - 1002.143286 s_1_5  + 1.071643 s_1_7  + 1.071643 s_1_8  > -989.755122
tt + 1000 s_2_5 > 0.0
tt - t_2_5 - 1002.301583 s_2_5  + 1.150791 s_2_7  + 1.150791 s_2_8  > -991.342200
tt + 1000 s_1_6 > 0.0
tt - t_1_6 - 1002.208708 s_1_6  + 0.441742 s_1_3  + 0.441742 s_1_2  + 0.441742 s_1_5  + 0.441742 s_1_1  + 0.441742 s_1_4  > -999.627100
tt + 1000 s_2_6 > 0.0
tt - t_2_6 - 1002.331628 s_2_6  + 0.466326 s_2_3  + 0.466326 s_2_2  + 0.466326 s_2_5  + 0.466326 s_2_1  + 0.466326 s_2_4  > -994.782600
tt + 1000 s_1_7 > 0.0
tt - t_1_7 - 1000.000000 s_1_7  > -968.746600
tt + 1000 s_2_7 > 0.0
tt - t_2_7 - 1000.000000 s_2_7  > -985.642092
tt + 1000 s_1_8 > 0.0
tt - t_1_8 - 1000.000000 s_1_8  > -968.624900
tt + 1000 s_2_8 > 0.0
tt - t_2_8 - 1000.000000 s_2_8  > -985.776311
s_1_1 + s_2_1 = 1
s_1_2 + s_2_2 = 1
s_1_3 + s_2_3 = 1
s_1_4 + s_2_4 = 1
s_1_5 + s_2_5 = 1
s_1_6 + s_2_6 = 1
s_1_7 + s_2_7 = 1
s_1_8 + s_2_8 = 1
s_1_1 + s_1_2 + 1000 r_1_1_2 >= 2
- s_1_1 - s_1_2 - 1000 r_1_1_2 >= -1001
t_1_1 - t_1_2 - 1000.000000 u_1_1_2 - 1.071643 s_1_2  + 1.071643 s_1_8  + 2000.000000 r_1_1_2 > -991.867400
s_2_1 + s_2_2 + 1000 r_2_1_2 >= 2
- s_2_1 - s_2_2 - 1000 r_2_1_2 >= -1001
t_2_1 - t_2_2 - 1000.000000 u_2_1_2 - 1.150791 s_2_2  + 1.150791 s_2_8  + 2000.000000 r_2_1_2 > -991.839336
s_1_1 + s_1_3 + 1000 r_1_1_3 >= 2
- s_1_1 - s_1_3 - 1000 r_1_1_3 >= -1001
t_1_1 - t_1_3 - 1000.000000 u_1_1_3 - 1.071643 s_1_3  + 1.071643 s_1_8  + 2000.000000 r_1_1_3 > -986.196600
s_2_1 + s_2_3 + 1000 r_2_1_3 >= 2
- s_2_1 - s_2_3 - 1000 r_2_1_3 >= -1001
t_2_1 - t_2_3 - 1000.000000 u_2_1_3 - 1.150791 s_2_3  + 1.150791 s_2_8  + 2000.000000 r_2_1_3 > -987.322828
s_1_1 + s_1_4 + 1000 r_1_1_4 >= 2
- s_1_1 - s_1_4 - 1000 r_1_1_4 >= -1001
t_1_1 - t_1_4 - 1000.000000 u_1_1_4 - 1.513385 s_1_4  + 0.441742 s_1_3  + 1.071643 s_1_8  + 2000.000000 r_1_1_4 > -993.099200
s_2_1 + s_2_4 + 1000 r_2_1_4 >= 2
- s_2_1 - s_2_4 - 1000 r_2_1_4 >= -1001
t_2_1 - t_2_4 - 1000.000000 u_2_1_4 - 1.617117 s_2_4  + 0.466326 s_2_3  + 1.150791 s_2_8  + 2000.000000 r_2_1_4 > -993.104711
s_1_1 + s_1_5 + 1000 r_1_1_5 >= 2
- s_1_1 - s_1_5 - 1000 r_1_1_5 >= -1001
t_1_1 - t_1_5 - 1000.000000 u_1_1_5 - 2.143286 s_1_5  + 1.071643 s_1_7  + 1.071643 s_1_8  + 2000.000000 r_1_1_5 > -989.755122
s_2_1 + s_2_5 + 1000 r_2_1_5 >= 2
- s_2_1 - s_2_5 - 1000 r_2_1_5 >= -1001
t_2_1 - t_2_5 - 1000.000000 u_2_1_5 - 2.301583 s_2_5  + 1.150791 s_2_7  + 1.150791 s_2_8  + 2000.000000 r_2_1_5 > -991.342200
t_1_6 - t_1_1 - 1001.071643 s_1_1  + 1.071643 s_1_7  > -992.504900
t_1_6 - t_2_1 - 1001.150791 s_2_1  + 1.150791 s_2_7  > -992.288078
t_2_6 - t_1_1 - 1001.071643 s_1_1  + 1.071643 s_1_7  > -992.504900
t_2_6 - t_2_1 - 1001.150791 s_2_1  + 1.150791 s_2_7  > -992.288078
t_1_1 - t_1_7 - 1000.000000 s_1_7  > -968.746600
t_1_1 - t_2_7 - 1000.000000 s_2_7  > -985.642092
t_2_1 - t_1_7 - 1000.000000 s_1_7  > -968.746600
t_2_1 - t_2_7 - 1000.000000 s_2_7  > -985.642092
s_1_1 + s_1_8 + 1000 r_1_1_8 >= 2
- s_1_1 - s_1_8 - 1000 r_1_1_8 >= -1001
t_1_1 - t_1_8 - 1000.000000 u_1_1_8 - 0.000000 s_1_8  + 2000.000000 r_1_1_8 > -968.624900
s_2_1 + s_2_8 + 1000 r_2_1_8 >= 2
- s_2_1 - s_2_8 - 1000 r_2_1_8 >= -1001
t_2_1 - t_2_8 - 1000.000000 u_2_1_8 - 0.000000 s_2_8  + 2000.000000 r_2_1_8 > -985.776311
s_1_2 + s_1_1 + 1000 r_1_1_2 >= 2
- s_1_2 - s_1_1 - 1000 r_1_1_2 >= -1001
t_1_2 - t_1_1 + 1000.000000 u_1_1_2 - 1.071643 s_1_1  + 1.071643 s_1_7  + 2000.000000 r_1_1_2 > 7.495100
s_2_2 + s_2_1 + 1000 r_2_1_2 >= 2
- s_2_2 - s_2_1 - 1000 r_2_1_2 >= -1001
t_2_2 - t_2_1 + 1000.000000 u_2_1_2 - 1.150791 s_2_1  + 1.150791 s_2_7  + 2000.000000 r_2_1_2 > 7.711922
s_1_2 + s_1_3 + 1000 r_1_2_3 >= 2
- s_1_2 - s_1_3 - 1000 r_1_2_3 >= -1001
t_1_2 - t_1_3 - 1000.000000 u_1_2_3 - 1.071643 s_1_3  + 1.071643 s_1_8  + 2000.000000 r_1_2_3 > -986.196600
s_2_2 + s_2_3 + 1000 r_2_2_3 >= 2
- s_2_2 - s_2_3 - 1000 r_2_2_3 >= -1001
t_2_2 - t_2_3 - 1000.000000 u_2_2_3 - 1.150791 s_2_3  + 1.150791 s_2_8  + 2000.000000 r_2_2_3 > -987.322828
s_1_2 + s_1_4 + 1000 r_1_2_4 >= 2
- s_1_2 - s_1_4 - 1000 r_1_2_4 >= -1001
t_1_2 - t_1_4 - 1000.000000 u_1_2_4 - 1.513385 s_1_4  + 0.441742 s_1_3  + 1.071643 s_1_8  + 2000.000000 r_1_2_4 > -993.099200
s_2_2 + s_2_4 + 1000 r_2_2_4 >= 2
- s_2_2 - s_2_4 - 1000 r_2_2_4 >= -1001
t_2_2 - t_2_4 - 1000.000000 u_2_2_4 - 1.617117 s_2_4  + 0.466326 s_2_3  + 1.150791 s_2_8  + 2000.000000 r_2_2_4 > -993.104711
s_1_2 + s_1_5 + 1000 r_1_2_5 >= 2
- s_1_2 - s_1_5 - 1000 r_1_2_5 >= -1001
t_1_2 - t_1_5 - 1000.000000 u_1_2_5 - 2.143286 s_1_5  + 1.071643 s_1_7  + 1.071643 s_1_8  + 2000.000000 r_1_2_5 > -989.755122
s_2_2 + s_2_5 + 1000 r_2_2_5 >= 2
- s_2_2 - s_2_5 - 1000 r_2_2_5 >= -1001
t_2_2 - t_2_5 - 1000.000000 u_2_2_5 - 2.301583 s_2_5  + 1.150791 s_2_7  + 1.150791 s_2_8  + 2000.000000 r_2_2_5 > -991.342200
t_1_6 - t_1_2 - 1001.071643 s_1_2  + 1.071643 s_1_8  > -991.867400
t_1_6 - t_2_2 - 1001.150791 s_2_2  + 1.150791 s_2_8  > -991.839336
t_2_6 - t_1_2 - 1001.071643 s_1_2  + 1.071643 s_1_8  > -991.867400
t_2_6 - t_2_2 - 1001.150791 s_2_2  + 1.150791 s_2_8  > -991.839336
s_1_2 + s_1_7 + 1000 r_1_2_7 >= 2
- s_1_2 - s_1_7 - 1000 r_1_2_7 >= -1001
t_1_2 - t_1_7 - 1000.000000 u_1_2_7 - 0.000000 s_1_7  + 2000.000000 r_1_2_7 > -968.746600
s_2_2 + s_2_7 + 1000 r_2_2_7 >= 2
- s_2_2 - s_2_7 - 1000 r_2_2_7 >= -1001
t_2_2 - t_2_7 - 1000.000000 u_2_2_7 - 0.000000 s_2_7  + 2000.000000 r_2_2_7 > -985.642092
t_1_2 - t_1_8 - 1000.000000 s_1_8  > -968.624900
t_1_2 - t_2_8 - 1000.000000 s_2_8  > -985.776311
t_2_2 - t_1_8 - 1000.000000 s_1_8  > -968.624900
t_2_2 - t_2_8 - 1000.000000 s_2_8  > -985.776311
s_1_3 + s_1_1 + 1000 r_1_1_3 >= 2
- s_1_3 - s_1_1 - 1000 r_1_1_3 >= -1001
t_1_3 - t_1_1 + 1000.000000 u_1_1_3 - 1.071643 s_1_1  + 1.071643 s_1_7  + 2000.000000 r_1_1_3 > 7.495100
s_2_3 + s_2_1 + 1000 r_2_1_3 >= 2
- s_2_3 - s_2_1 - 1000 r_2_1_3 >= -1001
t_2_3 - t_2_1 + 1000.000000 u_2_1_3 - 1.150791 s_2_1  + 1.150791 s_2_7  + 2000.000000 r_2_1_3 > 7.711922
s_1_3 + s_1_2 + 1000 r_1_2_3 >= 2
- s_1_3 - s_1_2 - 1000 r_1_2_3 >= -1001
t_1_3 - t_1_2 + 1000.000000 u_1_2_3 - 1.071643 s_1_2  + 1.071643 s_1_8  + 2000.000000 r_1_2_3 > 8.132600
s_2_3 + s_2_2 + 1000 r_2_2_3 >= 2
- s_2_3 - s_2_2 - 1000 r_2_2_3 >= -1001
t_2_3 - t_2_2 + 1000.000000 u_2_2_3 - 1.150791 s_2_2  + 1.150791 s_2_8  + 2000.000000 r_2_2_3 > 8.160664
t_1_4 - t_1_3 - 1001.071643 s_1_3  + 1.071643 s_1_8  > -986.196600
t_1_4 - t_2_3 - 1001.150791 s_2_3  + 1.150791 s_2_8  > -987.322828
t_2_4 - t_1_3 - 1001.071643 s_1_3  + 1.071643 s_1_8  > -986.196600
t_2_4 - t_2_3 - 1001.150791 s_2_3  + 1.150791 s_2_8  > -987.322828
s_1_3 + s_1_5 + 1000 r_1_3_5 >= 2
- s_1_3 - s_1_5 - 1000 r_1_3_5 >= -1001
t_1_3 - t_1_5 - 1000.000000 u_1_3_5 - 2.143286 s_1_5  + 1.071643 s_1_7  + 1.071643 s_1_8  + 2000.000000 r_1_3_5 > -989.755122
s_2_3 + s_2_5 + 1000 r_2_3_5 >= 2
- s_2_3 - s_2_5 - 1000 r_2_3_5 >= -1001
t_2_3 - t_2_5 - 1000.000000 u_2_3_5 - 2.301583 s_2_5  + 1.150791 s_2_7  + 1.150791 s_2_8  + 2000.000000 r_2_3_5 > -991.342200
t_1_6 - t_1_3 - 1001.071643 s_1_3  + 1.071643 s_1_8  > -986.196600
t_1_6 - t_2_3 - 1001.150791 s_2_3  + 1.150791 s_2_8  > -987.322828
t_2_6 - t_1_3 - 1001.071643 s_1_3  + 1.071643 s_1_8  > -986.196600
t_2_6 - t_2_3 - 1001.150791 s_2_3  + 1.150791 s_2_8  > -987.322828
s_1_3 + s_1_7 + 1000 r_1_3_7 >= 2
- s_1_3 - s_1_7 - 1000 r_1_3_7 >= -1001
t_1_3 - t_1_7 - 1000.000000 u_1_3_7 - 0.000000 s_1_7  + 2000.000000 r_1_3_7 > -968.746600
s_2_3 + s_2_7 + 1000 r_2_3_7 >= 2
- s_2_3 - s_2_7 - 1000 r_2_3_7 >= -1001
t_2_3 - t_2_7 - 1000.000000 u_2_3_7 - 0.000000 s_2_7  + 2000.000000 r_2_3_7 > -985.642092
t_1_3 - t_1_8 - 1000.000000 s_1_8  > -968.624900
t_1_3 - t_2_8 - 1000.000000 s_2_8  > -985.776311
t_2_3 - t_1_8 - 1000.000000 s_1_8  > -968.624900
t_2_3 - t_2_8 - 1000.000000 s_2_8  > -985.776311
s_1_4 + s_1_1 + 1000 r_1_1_4 >= 2
- s_1_4 - s_1_1 - 1000 r_1_1_4 >= -1001
t_1_4 - t_1_1 + 1000.000000 u_1_1_4 - 1.071643 s_1_1  + 1.071643 s_1_7  + 2000.000000 r_1_1_4 > 7.495100
s_2_4 + s_2_1 + 1000 r_2_1_4 >= 2
- s_2_4 - s_2_1 - 1000 r_2_1_4 >= -1001
t_2_4 - t_2_1 + 1000.000000 u_2_1_4 - 1.150791 s_2_1  + 1.150791 s_2_7  + 2000.000000 r_2_1_4 > 7.711922
s_1_4 + s_1_2 + 1000 r_1_2_4 >= 2
- s_1_4 - s_1_2 - 1000 r_1_2_4 >= -1001
t_1_4 - t_1_2 + 1000.000000 u_1_2_4 - 1.071643 s_1_2  + 1.071643 s_1_8  + 2000.000000 r_1_2_4 > 8.132600
s_2_4 + s_2_2 + 1000 r_2_2_4 >= 2
- s_2_4 - s_2_2 - 1000 r_2_2_4 >= -1001
t_2_4 - t_2_2 + 1000.000000 u_2_2_4 - 1.150791 s_2_2  + 1.150791 s_2_8  + 2000.000000 r_2_2_4 > 8.160664
s_1_4 + s_1_5 + 1000 r_1_4_5 >= 2
- s_1_4 - s_1_5 - 1000 r_1_4_5 >= -1001
t_1_4 - t_1_5 - 1000.000000 u_1_4_5 - 2.143286 s_1_5  + 1.071643 s_1_7  + 1.071643 s_1_8  + 2000.000000 r_1_4_5 > -989.755122
s_2_4 + s_2_5 + 1000 r_2_4_5 >= 2
- s_2_4 - s_2_5 - 1000 r_2_4_5 >= -1001
t_2_4 - t_2_5 - 1000.000000 u_2_4_5 - 2.301583 s_2_5  + 1.150791 s_2_7  + 1.150791 s_2_8  + 2000.000000 r_2_4_5 > -991.342200
t_1_6 - t_1_4 - 1001.513385 s_1_4  + 0.441742 s_1_3  + 1.071643 s_1_8  > -993.099200
t_1_6 - t_2_4 - 1001.617117 s_2_4  + 0.466326 s_2_3  + 1.150791 s_2_8  > -993.104711
t_2_6 - t_1_4 - 1001.513385 s_1_4  + 0.441742 s_1_3  + 1.071643 s_1_8  > -993.099200
t_2_6 - t_2_4 - 1001.617117 s_2_4  + 0.466326 s_2_3  + 1.150791 s_2_8  > -993.104711
s_1_4 + s_1_7 + 1000 r_1_4_7 >= 2
- s_1_4 - s_1_7 - 1000 r_1_4_7 >= -1001
t_1_4 - t_1_7 - 1000.000000 u_1_4_7 - 0.000000 s_1_7  + 2000.000000 r_1_4_7 > -968.746600
s_2_4 + s_2_7 + 1000 r_2_4_7 >= 2
- s_2_4 - s_2_7 - 1000 r_2_4_7 >= -1001
t_2_4 - t_2_7 - 1000.000000 u_2_4_7 - 0.000000 s_2_7  + 2000.000000 r_2_4_7 > -985.642092
t_1_4 - t_1_8 - 1000.000000 s_1_8  > -968.624900
t_1_4 - t_2_8 - 1000.000000 s_2_8  > -985.776311
t_2_4 - t_1_8 - 1000.000000 s_1_8  > -968.624900
t_2_4 - t_2_8 - 1000.000000 s_2_8  > -985.776311
s_1_5 + s_1_1 + 1000 r_1_1_5 >= 2
- s_1_5 - s_1_1 - 1000 r_1_1_5 >= -1001
t_1_5 - t_1_1 + 1000.000000 u_1_1_5 - 1.071643 s_1_1  + 1.071643 s_1_7  + 2000.000000 r_1_1_5 > 7.495100
s_2_5 + s_2_1 + 1000 r_2_1_5 >= 2
- s_2_5 - s_2_1 - 1000 r_2_1_5 >= -1001
t_2_5 - t_2_1 + 1000.000000 u_2_1_5 - 1.150791 s_2_1  + 1.150791 s_2_7  + 2000.000000 r_2_1_5 > 7.711922
s_1_5 + s_1_2 + 1000 r_1_2_5 >= 2
- s_1_5 - s_1_2 - 1000 r_1_2_5 >= -1001
t_1_5 - t_1_2 + 1000.000000 u_1_2_5 - 1.071643 s_1_2  + 1.071643 s_1_8  + 2000.000000 r_1_2_5 > 8.132600
s_2_5 + s_2_2 + 1000 r_2_2_5 >= 2
- s_2_5 - s_2_2 - 1000 r_2_2_5 >= -1001
t_2_5 - t_2_2 + 1000.000000 u_2_2_5 - 1.150791 s_2_2  + 1.150791 s_2_8  + 2000.000000 r_2_2_5 > 8.160664
s_1_5 + s_1_3 + 1000 r_1_3_5 >= 2
- s_1_5 - s_1_3 - 1000 r_1_3_5 >= -1001
t_1_5 - t_1_3 + 1000.000000 u_1_3_5 - 1.071643 s_1_3  + 1.071643 s_1_8  + 2000.000000 r_1_3_5 > 13.803400
s_2_5 + s_2_3 + 1000 r_2_3_5 >= 2
- s_2_5 - s_2_3 - 1000 r_2_3_5 >= -1001
t_2_5 - t_2_3 + 1000.000000 u_2_3_5 - 1.150791 s_2_3  + 1.150791 s_2_8  + 2000.000000 r_2_3_5 > 12.677172
s_1_5 + s_1_4 + 1000 r_1_4_5 >= 2
- s_1_5 - s_1_4 - 1000 r_1_4_5 >= -1001
t_1_5 - t_1_4 + 1000.000000 u_1_4_5 - 1.513385 s_1_4  + 0.441742 s_1_3  + 1.071643 s_1_8  + 2000.000000 r_1_4_5 > 6.900800
s_2_5 + s_2_4 + 1000 r_2_4_5 >= 2
- s_2_5 - s_2_4 - 1000 r_2_4_5 >= -1001
t_2_5 - t_2_4 + 1000.000000 u_2_4_5 - 1.617117 s_2_4  + 0.466326 s_2_3  + 1.150791 s_2_8  + 2000.000000 r_2_4_5 > 6.895289
t_1_6 - t_1_5 - 1002.143286 s_1_5  + 1.071643 s_1_7  + 1.071643 s_1_8  > -989.755122
t_1_6 - t_2_5 - 1002.301583 s_2_5  + 1.150791 s_2_7  + 1.150791 s_2_8  > -991.342200
t_2_6 - t_1_5 - 1002.143286 s_1_5  + 1.071643 s_1_7  + 1.071643 s_1_8  > -989.755122
t_2_6 - t_2_5 - 1002.301583 s_2_5  + 1.150791 s_2_7  + 1.150791 s_2_8  > -991.342200
t_1_5 - t_1_7 - 1000.000000 s_1_7  > -968.746600
t_1_5 - t_2_7 - 1000.000000 s_2_7  > -985.642092
t_2_5 - t_1_7 - 1000.000000 s_1_7  > -968.746600
t_2_5 - t_2_7 - 1000.000000 s_2_7  > -985.642092
t_1_5 - t_1_8 - 1000.000000 s_1_8  > -968.624900
t_1_5 - t_2_8 - 1000.000000 s_2_8  > -985.776311
t_2_5 - t_1_8 - 1000.000000 s_1_8  > -968.624900
t_2_5 - t_2_8 - 1000.000000 s_2_8  > -985.776311
s_1_7 + s_1_2 + 1000 r_1_2_7 >= 2
- s_1_7 - s_1_2 - 1000 r_1_2_7 >= -1001
t_1_7 - t_1_2 + 1000.000000 u_1_2_7 - 1.071643 s_1_2  + 1.071643 s_1_8  + 2000.000000 r_1_2_7 > 8.132600
s_2_7 + s_2_2 + 1000 r_2_2_7 >= 2
- s_2_7 - s_2_2 - 1000 r_2_2_7 >= -1001
t_2_7 - t_2_2 + 1000.000000 u_2_2_7 - 1.150791 s_2_2  + 1.150791 s_2_8  + 2000.000000 r_2_2_7 > 8.160664
s_1_7 + s_1_3 + 1000 r_1_3_7 >= 2
- s_1_7 - s_1_3 - 1000 r_1_3_7 >= -1001
t_1_7 - t_1_3 + 1000.000000 u_1_3_7 - 1.071643 s_1_3  + 1.071643 s_1_8  + 2000.000000 r_1_3_7 > 13.803400
s_2_7 + s_2_3 + 1000 r_2_3_7 >= 2
- s_2_7 - s_2_3 - 1000 r_2_3_7 >= -1001
t_2_7 - t_2_3 + 1000.000000 u_2_3_7 - 1.150791 s_2_3  + 1.150791 s_2_8  + 2000.000000 r_2_3_7 > 12.677172
s_1_7 + s_1_4 + 1000 r_1_4_7 >= 2
- s_1_7 - s_1_4 - 1000 r_1_4_7 >= -1001
t_1_7 - t_1_4 + 1000.000000 u_1_4_7 - 1.513385 s_1_4  + 0.441742 s_1_3  + 1.071643 s_1_8  + 2000.000000 r_1_4_7 > 6.900800
s_2_7 + s_2_4 + 1000 r_2_4_7 >= 2
- s_2_7 - s_2_4 - 1000 r_2_4_7 >= -1001
t_2_7 - t_2_4 + 1000.000000 u_2_4_7 - 1.617117 s_2_4  + 0.466326 s_2_3  + 1.150791 s_2_8  + 2000.000000 r_2_4_7 > 6.895289
s_1_7 + s_1_8 + 1000 r_1_7_8 >= 2
- s_1_7 - s_1_8 - 1000 r_1_7_8 >= -1001
t_1_7 - t_1_8 - 1000.000000 u_1_7_8 - 0.000000 s_1_8  + 2000.000000 r_1_7_8 > -968.624900
s_2_7 + s_2_8 + 1000 r_2_7_8 >= 2
- s_2_7 - s_2_8 - 1000 r_2_7_8 >= -1001
t_2_7 - t_2_8 - 1000.000000 u_2_7_8 - 0.000000 s_2_8  + 2000.000000 r_2_7_8 > -985.776311
s_1_8 + s_1_1 + 1000 r_1_1_8 >= 2
- s_1_8 - s_1_1 - 1000 r_1_1_8 >= -1001
t_1_8 - t_1_1 + 1000.000000 u_1_1_8 - 1.071643 s_1_1  + 1.071643 s_1_7  + 2000.000000 r_1_1_8 > 7.495100
s_2_8 + s_2_1 + 1000 r_2_1_8 >= 2
- s_2_8 - s_2_1 - 1000 r_2_1_8 >= -1001
t_2_8 - t_2_1 + 1000.000000 u_2_1_8 - 1.150791 s_2_1  + 1.150791 s_2_7  + 2000.000000 r_2_1_8 > 7.711922
s_1_8 + s_1_7 + 1000 r_1_7_8 >= 2
- s_1_8 - s_1_7 - 1000 r_1_7_8 >= -1001
t_1_8 - t_1_7 + 1000.000000 u_1_7_8 - 0.000000 s_1_7  + 2000.000000 r_1_7_8 > 31.253400
s_2_8 + s_2_7 + 1000 r_2_7_8 >= 2
- s_2_8 - s_2_7 - 1000 r_2_7_8 >= -1001
t_2_8 - t_2_7 + 1000.000000 u_2_7_8 - 0.000000 s_2_7  + 2000.000000 r_2_7_8 > 14.357908
Binary
s_1_1
s_2_1
s_1_2
s_2_2
s_1_3
s_2_3
s_1_4
s_2_4
s_1_5
s_2_5
s_1_6
s_2_6
s_1_7
s_2_7
s_1_8
s_2_8
u_1_1_2
r_1_1_2
u_2_1_2
r_2_1_2
u_1_1_3
r_1_1_3
u_2_1_3
r_2_1_3
u_1_1_4
r_1_1_4
u_2_1_4
r_2_1_4
u_1_1_5
r_1_1_5
u_2_1_5
r_2_1_5
u_1_1_8
r_1_1_8
u_2_1_8
r_2_1_8
u_1_2_3
r_1_2_3
u_2_2_3
r_2_2_3
u_1_2_4
r_1_2_4
u_2_2_4
r_2_2_4
u_1_2_5
r_1_2_5
u_2_2_5
r_2_2_5
u_1_2_7
r_1_2_7
u_2_2_7
r_2_2_7
u_1_3_5
r_1_3_5
u_2_3_5
r_2_3_5
u_1_3_7
r_1_3_7
u_2_3_7
r_2_3_7
u_1_4_5
r_1_4_5
u_2_4_5
r_2_4_5
u_1_4_7
r_1_4_7
u_2_4_7
r_2_4_7
u_1_7_8
r_1_7_8
u_2_7_8
r_2_7_8

End
